Route #1: 7 19 32 20 25 13 12 1 8 2 14 21 26 22 9 3 15 16 4 5 17 23 18 6 10 11 24 31 41 35 30 40 34 29 28 39 33 27 38 45 46 59 65 76 81 82 72 71 60 51 52 53 61 54 62 74 73 83 90 95 89 100 88 94 87 99 93 86 80 85 92 98 97 84 79 68 69 70 58 57 50 44 49 37 36 43 47 48 64 67 63 56 42 55 66 77 75 78 91 96
Cost 47356
